106343
0,9,28,13,69,61,79,35,25,75,66,19,8,76,57,16,55,50,71,80,59,46,48,33,56,42,2,11,22,54,41,24,14,68,77,40,51,38,62,52,58,67,7,82,60,5,78,27,34,29,1,37,15,26,6,32,10,74,39,73,31,81,43,21,4,18,47,23,30,3,49,64,17,36,12,20,70,65,53,45,44,72,63,0